(set-info :smt-lib-version 2.6)
(set-logic UF)
(set-info :source |Benchmarks from the paper: "Extending Sledgehammer with SMT Solvers" by Jasmin Blanchette, Sascha Bohme, and Lawrence C. Paulson, CADE 2011.  Translated to SMT2 by Andrew Reynolds and Morgan Deters.|)
(set-info :category "industrial")
(set-info :status unknown)
(declare-sort S1 0)
(declare-sort S2 0)
(declare-sort S3 0)
(declare-sort S4 0)
(declare-sort S5 0)
(declare-sort S6 0)
(declare-sort S7 0)
(declare-sort S8 0)
(declare-sort S9 0)
(declare-sort S10 0)
(declare-sort S11 0)
(declare-sort S12 0)
(declare-fun f1 () S1)
(declare-fun f2 () S1)
(declare-fun f3 (S2 S2) S1)
(declare-fun f4 () S2)
(declare-fun f5 (S3 S4) S2)
(declare-fun f6 () S3)
(declare-fun f7 (S5 S4) S4)
(declare-fun f8 (S6 S7) S5)
(declare-fun f9 () S6)
(declare-fun f10 (S8 S7) S7)
(declare-fun f11 (S9 S4) S8)
(declare-fun f12 () S9)
(declare-fun f13 () S4)
(declare-fun f14 () S4)
(declare-fun f15 () S7)
(declare-fun f16 () S4)
(declare-fun f17 (S10 S4) S5)
(declare-fun f18 () S10)
(declare-fun f19 () S10)
(declare-fun f20 () S7)
(declare-fun f21 (S11 S2) S2)
(declare-fun f22 (S12 S2) S11)
(declare-fun f23 () S12)
(declare-fun f24 () S11)
(declare-fun f25 () S12)
(declare-fun f26 () S4)
(declare-fun f27 () S11)
(declare-fun f28 () S7)
(declare-fun f29 () S10)
(declare-fun f30 () S12)
(declare-fun f31 () S2)
(assert (not (= f1 f2)))
(assert (not (= (f3 f4 (f5 f6 (f7 (f8 f9 (f10 (f11 f12 f13) (f10 (f11 f12 f14) f15))) f16))) f1)))
(assert (= (f3 f4 (f5 f6 (f7 (f17 f18 f13) (f7 (f17 f19 f16) f14)))) f1))
(assert (= f15 f20))
(assert (= f15 f20))
(assert (not (not (= f15 f20))))
(assert (not (= (f10 (f11 f12 f14) f15) f20)))
(assert (= (f3 f4 (f5 f6 (f7 (f17 f18 f13) (f7 (f17 f19 f16) f14)))) f1))
(assert (forall ((?v0 S2) (?v1 S4)) (=> (not (= f15 f20)) (exists ((?v2 S2)) (forall ((?v3 S4)) (=> (= (f3 ?v2 (f5 f6 ?v3)) f1) (= (f3 ?v0 (f5 f6 (f7 (f8 f9 (f10 (f11 f12 ?v1) f15)) ?v3))) f1)))))))
(assert (=> (not (= f15 f20)) (exists ((?v0 S2)) (forall ((?v1 S4)) (=> (= (f3 ?v0 (f5 f6 ?v1)) f1) (= (f3 f4 (f5 f6 (f7 (f8 f9 (f10 (f11 f12 f13) (f10 (f11 f12 f14) f15))) ?v1))) f1))))))
(assert (= (f3 (f21 (f22 f23 (f21 f24 f4)) (f5 f6 f13)) (f5 f6 (f7 (f17 f19 f16) f14))) f1))
(assert (forall ((?v0 S2) (?v1 S7)) (exists ((?v2 S4)) (forall ((?v3 S4)) (let ((?v_0 (f8 f9 ?v1))) (=> (= (f3 (f5 f6 ?v3) ?v0) f1) (= (f3 (f5 f6 (f7 ?v_0 ?v2)) (f5 f6 (f7 ?v_0 ?v3))) f1)))))))
(assert (= (f3 (f21 (f22 f25 (f21 (f22 f23 (f21 f24 f4)) (f5 f6 f13))) (f5 f6 f14)) (f5 f6 f16)) f1))
(assert (let ((?v_0 (f7 (f17 f19 f16) f14))) (= (f3 (f5 f6 ?v_0) (f21 (f22 f23 (f5 f6 (f7 (f17 f18 f13) ?v_0))) (f5 f6 f13))) f1)))
(assert (let ((?v_0 (f7 (f17 f19 f16) f14))) (= (f3 (f5 f6 ?v_0) (f21 (f22 f23 (f5 f6 (f7 (f17 f18 ?v_0) f13))) (f5 f6 f13))) f1)))
(assert (forall ((?v0 S2) (?v1 S2) (?v2 S2)) (=> (= (f3 ?v0 (f21 (f22 f23 ?v1) ?v2)) f1) (=> (= (f3 (f21 (f22 f23 (f21 f24 f4)) ?v2) ?v0) f1) (= (f3 f4 ?v1) f1)))))
(assert (forall ((?v0 S2)) (= (f3 ?v0 ?v0) f1)))
(assert (not (= f14 f26)))
(assert (forall ((?v0 S7) (?v1 S7)) (= (= (f8 f9 ?v0) (f8 f9 ?v1)) (= ?v0 ?v1))))
(assert (forall ((?v0 S4) (?v1 S7) (?v2 S4) (?v3 S7)) (= (= (f10 (f11 f12 ?v0) ?v1) (f10 (f11 f12 ?v2) ?v3)) (and (= ?v0 ?v2) (= ?v1 ?v3)))))
(assert (forall ((?v0 S2)) (let ((?v_0 (f21 f27 ?v0))) (= (f21 f24 ?v_0) ?v_0))))
(assert (forall ((?v0 S4)) (let ((?v_0 (f5 f6 ?v0))) (= (f21 f24 ?v_0) ?v_0))))
(assert (forall ((?v0 S2)) (= (f3 ?v0 ?v0) f1)))
(assert (not (= f28 f20)))
(assert (forall ((?v0 S2) (?v1 S2)) (= (f21 f27 (f21 (f22 f25 ?v0) ?v1)) (f21 (f22 f25 (f21 f27 ?v0)) (f21 f27 ?v1)))))
(assert (forall ((?v0 S4) (?v1 S4)) (= (f5 f6 (f7 (f17 f29 ?v0) ?v1)) (f21 (f22 f25 (f5 f6 ?v0)) (f5 f6 ?v1)))))
(assert (forall ((?v0 S2)) (= (f21 (f22 f30 f31) ?v0) f31)))
(assert (forall ((?v0 S4)) (= (f7 (f17 f19 f26) ?v0) f26)))
(assert (forall ((?v0 S2)) (= (f21 (f22 f30 f31) ?v0) f31)))
(assert (forall ((?v0 S4)) (= (f7 (f17 f19 f26) ?v0) f26)))
(assert (forall ((?v0 S2)) (= (f21 (f22 f25 f31) ?v0) f31)))
(assert (forall ((?v0 S4)) (= (f7 (f17 f29 f26) ?v0) f26)))
(assert (forall ((?v0 S2)) (= (f21 (f22 f30 ?v0) f31) f31)))
(assert (forall ((?v0 S4)) (= (f7 (f17 f19 ?v0) f26) f26)))
(assert (forall ((?v0 S2)) (= (f21 (f22 f30 ?v0) f31) f31)))
(assert (forall ((?v0 S4)) (= (f7 (f17 f19 ?v0) f26) f26)))
(assert (forall ((?v0 S4) (?v1 S4) (?v2 S4)) (let ((?v_0 (f17 f19 ?v0))) (= (f7 ?v_0 (f7 (f17 f18 ?v1) ?v2)) (f7 (f17 f18 (f7 ?v_0 ?v1)) (f7 ?v_0 ?v2))))))
(assert (forall ((?v0 S2) (?v1 S2) (?v2 S2)) (let ((?v_0 (f22 f30 ?v0))) (= (f21 ?v_0 (f21 (f22 f23 ?v1) ?v2)) (f21 (f22 f23 (f21 ?v_0 ?v1)) (f21 ?v_0 ?v2))))))
(assert (forall ((?v0 S4) (?v1 S4) (?v2 S4)) (let ((?v_0 (f17 f19 ?v0))) (= (f7 ?v_0 (f7 (f17 f18 ?v1) ?v2)) (f7 (f17 f18 (f7 ?v_0 ?v1)) (f7 ?v_0 ?v2))))))
(assert (forall ((?v0 S2) (?v1 S2) (?v2 S2)) (let ((?v_0 (f22 f30 ?v0))) (= (f21 ?v_0 (f21 (f22 f23 ?v1) ?v2)) (f21 (f22 f23 (f21 ?v_0 ?v1)) (f21 ?v_0 ?v2))))))
(assert (forall ((?v0 S4) (?v1 S4) (?v2 S4)) (= (f7 (f17 f19 (f7 (f17 f18 ?v0) ?v1)) ?v2) (f7 (f17 f18 (f7 (f17 f19 ?v0) ?v2)) (f7 (f17 f19 ?v1) ?v2)))))
(assert (forall ((?v0 S2) (?v1 S2) (?v2 S2)) (= (f21 (f22 f30 (f21 (f22 f23 ?v0) ?v1)) ?v2) (f21 (f22 f23 (f21 (f22 f30 ?v0) ?v2)) (f21 (f22 f30 ?v1) ?v2)))))
(assert (forall ((?v0 S4) (?v1 S4) (?v2 S4)) (= (f7 (f17 f19 (f7 (f17 f18 ?v0) ?v1)) ?v2) (f7 (f17 f18 (f7 (f17 f19 ?v0) ?v2)) (f7 (f17 f19 ?v1) ?v2)))))
(assert (forall ((?v0 S2) (?v1 S2) (?v2 S2)) (= (f21 (f22 f30 (f21 (f22 f23 ?v0) ?v1)) ?v2) (f21 (f22 f23 (f21 (f22 f30 ?v0) ?v2)) (f21 (f22 f30 ?v1) ?v2)))))
(assert (forall ((?v0 S4) (?v1 S4) (?v2 S4)) (= (f7 (f17 f29 (f7 (f17 f18 ?v0) ?v1)) ?v2) (f7 (f17 f18 (f7 (f17 f29 ?v0) ?v2)) (f7 (f17 f29 ?v1) ?v2)))))
(assert (forall ((?v0 S2) (?v1 S2) (?v2 S2)) (= (f21 (f22 f25 (f21 (f22 f23 ?v0) ?v1)) ?v2) (f21 (f22 f23 (f21 (f22 f25 ?v0) ?v2)) (f21 (f22 f25 ?v1) ?v2)))))
(assert (forall ((?v0 S2) (?v1 S2)) (=> (not (= ?v0 f31)) (= (f21 f27 (f21 (f22 f25 ?v1) ?v0)) (f21 (f22 f25 (f21 f27 ?v1)) (f21 f27 ?v0))))))
(assert (forall ((?v0 S4) (?v1 S4)) (=> (not (= ?v0 f26)) (= (f5 f6 (f7 (f17 f29 ?v1) ?v0)) (f21 (f22 f25 (f5 f6 ?v1)) (f5 f6 ?v0))))))
(assert (forall ((?v0 S4) (?v1 S4)) (= (f5 f6 (f7 (f17 f19 ?v0) ?v1)) (f21 (f22 f30 (f5 f6 ?v0)) (f5 f6 ?v1)))))
(assert (forall ((?v0 S2) (?v1 S2)) (= (f21 f27 (f21 (f22 f30 ?v0) ?v1)) (f21 (f22 f30 (f21 f27 ?v0)) (f21 f27 ?v1)))))
(check-sat)
(exit)
